p edge 2287 2222
e 1 2
e 1 3
e 1 4
e 1 5
e 1 6
e 1 7
e 1 8
e 1 9
e 1 10
e 1 11
e 1 12
e 1 13
e 1 14
e 1 15
e 1 16
e 1 17
e 1 18
e 1 19
e 20 21
e 20 22
e 20 23
e 20 24
e 20 25
e 20 26
e 20 27
e 20 28
e 20 29
e 20 30
e 20 31
e 20 32
e 20 33
e 20 34
e 20 35
e 20 36
e 20 37
e 20 38
e 20 39
e 20 40
e 20 41
e 20 42
e 20 43
e 20 44
e 20 45
e 20 46
e 20 47
e 20 48
e 20 49
e 20 50
e 20 51
e 20 52
e 20 53
e 20 54
e 20 55
e 20 56
e 20 57
e 20 58
e 20 59
e 20 60
e 61 62
e 61 63
e 61 64
e 61 65
e 61 66
e 61 67
e 61 68
e 61 69
e 61 70
e 61 71
e 61 72
e 61 73
e 61 74
e 61 75
e 61 76
e 61 77
e 61 78
e 61 79
e 80 81
e 80 82
e 80 83
e 80 84
e 80 85
e 80 86
e 80 87
e 80 88
e 80 89
e 80 90
e 80 91
e 80 92
e 80 93
e 80 94
e 80 95
e 80 96
e 80 97
e 80 98
e 80 99
e 80 100
e 80 101
e 80 102
e 80 103
e 104 105
e 104 106
e 104 107
e 104 108
e 104 109
e 104 110
e 104 111
e 104 112
e 104 113
e 104 114
e 104 115
e 104 116
e 104 117
e 104 118
e 104 119
e 120 121
e 120 122
e 120 123
e 120 124
e 120 125
e 120 126
e 120 127
e 120 128
e 120 129
e 120 130
e 120 131
e 120 132
e 120 133
e 120 134
e 120 135
e 120 136
e 120 137
e 138 139
e 138 140
e 138 141
e 138 142
e 138 143
e 138 144
e 138 145
e 138 146
e 138 147
e 138 148
e 138 149
e 138 150
e 138 151
e 138 152
e 138 153
e 138 154
e 138 155
e 138 156
e 138 157
e 138 158
e 138 159
e 138 160
e 138 161
e 138 162
e 138 163
e 138 164
e 138 165
e 138 166
e 138 167
e 138 168
e 138 169
e 138 170
e 138 171
e 172 173
e 172 174
e 172 175
e 172 176
e 172 177
e 172 178
e 172 179
e 172 180
e 172 181
e 172 182
e 172 183
e 172 184
e 172 185
e 172 186
e 172 187
e 172 188
e 172 189
e 172 190
e 172 191
e 192 193
e 192 194
e 192 195
e 192 196
e 192 197
e 192 198
e 192 199
e 192 200
e 192 201
e 192 202
e 192 203
e 192 204
e 192 205
e 206 207
e 206 208
e 206 209
e 206 210
e 206 211
e 206 212
e 206 213
e 206 214
e 206 215
e 206 216
e 206 217
e 206 218
e 206 219
e 206 220
e 206 221
e 206 222
e 206 223
e 206 224
e 206 225
e 206 226
e 206 227
e 206 228
e 206 229
e 206 230
e 206 231
e 206 232
e 206 233
e 206 234
e 206 235
e 206 236
e 206 237
e 206 238
e 206 239
e 206 240
e 206 241
e 206 242
e 206 243
e 206 244
e 206 245
e 206 246
e 206 247
e 206 248
e 206 249
e 206 250
e 206 251
e 206 252
e 206 253
e 206 254
e 206 255
e 206 256
e 206 257
e 206 258
e 206 259
e 206 260
e 206 261
e 206 262
e 206 263
e 206 264
e 206 265
e 206 266
e 267 268
e 267 269
e 267 270
e 267 271
e 267 272
e 267 273
e 267 274
e 267 275
e 267 276
e 267 277
e 267 278
e 267 279
e 267 280
e 267 281
e 267 282
e 267 283
e 267 284
e 267 285
e 267 286
e 267 287
e 267 288
e 267 289
e 267 290
e 267 291
e 267 292
e 267 293
e 267 294
e 267 295
e 267 296
e 267 297
e 267 298
e 267 299
e 267 300
e 267 301
e 267 302
e 267 303
e 267 304
e 267 305
e 267 306
e 267 307
e 267 308
e 309 310
e 309 311
e 309 312
e 309 313
e 309 314
e 309 315
e 309 316
e 309 317
e 309 318
e 309 319
e 309 320
e 309 321
e 309 322
e 309 323
e 309 324
e 309 325
e 309 326
e 309 327
e 328 329
e 328 330
e 328 331
e 328 332
e 328 333
e 328 334
e 328 335
e 328 336
e 328 337
e 328 338
e 328 339
e 328 340
e 328 341
e 328 342
e 328 343
e 328 344
e 328 345
e 346 347
e 346 348
e 346 349
e 346 350
e 346 351
e 346 352
e 346 353
e 346 354
e 346 355
e 346 356
e 346 357
e 346 358
e 346 359
e 346 360
e 346 361
e 346 362
e 346 363
e 346 364
e 346 365
e 346 366
e 346 367
e 346 368
e 346 369
e 370 371
e 370 372
e 370 373
e 370 374
e 370 375
e 370 376
e 370 377
e 370 378
e 370 379
e 370 380
e 370 381
e 370 382
e 370 383
e 370 384
e 370 385
e 370 386
e 370 387
e 370 388
e 370 389
e 370 390
e 370 391
e 370 392
e 370 393
e 370 394
e 395 396
e 395 397
e 395 398
e 395 399
e 395 400
e 395 401
e 395 402
e 395 403
e 395 404
e 395 405
e 395 406
e 395 407
e 395 408
e 395 409
e 395 410
e 395 411
e 395 412
e 395 413
e 395 414
e 395 415
e 395 416
e 395 417
e 395 418
e 395 419
e 395 420
e 395 421
e 395 422
e 395 423
e 395 424
e 395 425
e 395 426
e 395 427
e 395 428
e 395 429
e 395 430
e 395 431
e 395 432
e 395 433
e 395 434
e 395 435
e 395 436
e 395 437
e 395 438
e 395 439
e 395 440
e 395 441
e 395 442
e 395 443
e 395 444
e 395 445
e 395 446
e 395 447
e 395 448
e 395 449
e 395 450
e 395 451
e 395 452
e 395 453
e 395 454
e 395 455
e 456 457
e 456 458
e 456 459
e 456 460
e 456 461
e 456 462
e 456 463
e 456 464
e 456 465
e 456 466
e 456 467
e 456 468
e 456 469
e 456 470
e 456 471
e 456 472
e 456 473
e 456 474
e 456 475
e 456 476
e 456 477
e 456 478
e 456 479
e 456 480
e 456 481
e 456 482
e 456 483
e 456 484
e 456 485
e 456 486
e 456 487
e 456 488
e 456 489
e 456 490
e 456 491
e 456 492
e 456 493
e 456 494
e 456 495
e 456 496
e 456 497
e 456 498
e 456 499
e 456 500
e 456 501
e 456 502
e 456 503
e 456 504
e 456 505
e 456 506
e 456 507
e 456 508
e 456 509
e 456 510
e 456 511
e 456 512
e 456 513
e 514 515
e 514 516
e 514 517
e 514 518
e 514 519
e 514 520
e 514 521
e 514 522
e 514 523
e 514 524
e 525 526
e 525 527
e 525 528
e 525 529
e 525 530
e 525 531
e 525 532
e 525 533
e 525 534
e 525 535
e 525 536
e 525 537
e 525 538
e 525 539
e 525 540
e 525 541
e 525 542
e 525 543
e 525 544
e 525 545
e 525 546
e 525 547
e 525 548
e 525 549
e 525 550
e 525 551
e 525 552
e 525 553
e 525 554
e 525 555
e 525 556
e 525 557
e 525 558
e 525 559
e 525 560
e 525 561
e 525 562
e 563 564
e 563 565
e 563 566
e 563 567
e 563 568
e 563 569
e 563 570
e 563 571
e 563 572
e 563 573
e 563 574
e 563 575
e 563 576
e 563 577
e 563 578
e 563 579
e 563 580
e 563 581
e 563 582
e 563 583
e 563 584
e 563 585
e 563 586
e 563 587
e 563 588
e 563 589
e 563 590
e 563 591
e 563 592
e 563 593
e 563 594
e 563 595
e 563 596
e 563 597
e 563 598
e 563 599
e 563 600
e 563 601
e 563 602
e 563 603
e 563 604
e 563 605
e 606 607
e 606 608
e 606 609
e 606 610
e 606 611
e 606 612
e 606 613
e 606 614
e 606 615
e 606 616
e 606 617
e 606 618
e 606 619
e 606 620
e 606 621
e 606 622
e 606 623
e 606 624
e 606 625
e 606 626
e 606 627
e 606 628
e 606 629
e 606 630
e 606 631
e 606 632
e 606 633
e 606 634
e 606 635
e 606 636
e 606 637
e 606 638
e 606 639
e 606 640
e 606 641
e 606 642
e 606 643
e 606 644
e 606 645
e 606 646
e 606 647
e 606 648
e 606 649
e 606 650
e 606 651
e 652 653
e 652 654
e 652 655
e 652 656
e 652 657
e 652 658
e 652 659
e 652 660
e 652 661
e 652 662
e 652 663
e 652 664
e 652 665
e 652 666
e 652 667
e 652 668
e 669 670
e 669 671
e 669 672
e 669 673
e 669 674
e 669 675
e 669 676
e 669 677
e 669 678
e 669 679
e 669 680
e 669 681
e 669 682
e 669 683
e 669 684
e 669 685
e 669 686
e 669 687
e 669 688
e 669 689
e 669 690
e 669 691
e 669 692
e 669 693
e 669 694
e 669 695
e 669 696
e 669 697
e 669 698
e 669 699
e 669 700
e 669 701
e 669 702
e 669 703
e 669 704
e 669 705
e 669 706
e 669 707
e 669 708
e 669 709
e 669 710
e 669 711
e 669 712
e 669 713
e 669 714
e 669 715
e 716 717
e 716 718
e 716 719
e 716 720
e 716 721
e 716 722
e 716 723
e 716 724
e 716 725
e 716 726
e 716 727
e 716 728
e 716 729
e 716 730
e 716 731
e 716 732
e 716 733
e 716 734
e 716 735
e 716 736
e 716 737
e 716 738
e 716 739
e 716 740
e 741 742
e 741 743
e 741 744
e 741 745
e 741 746
e 741 747
e 741 748
e 741 749
e 741 750
e 741 751
e 741 752
e 741 753
e 741 754
e 741 755
e 741 756
e 741 757
e 741 758
e 741 759
e 741 760
e 741 761
e 741 762
e 741 763
e 741 764
e 741 765
e 741 766
e 741 767
e 741 768
e 741 769
e 741 770
e 741 771
e 741 772
e 741 773
e 741 774
e 741 775
e 741 776
e 741 777
e 741 778
e 741 779
e 741 780
e 741 781
e 741 782
e 741 783
e 741 784
e 741 785
e 741 786
e 741 787
e 741 788
e 741 789
e 741 790
e 741 791
e 741 792
e 741 793
e 794 795
e 794 796
e 794 797
e 794 798
e 794 799
e 794 800
e 794 801
e 794 802
e 794 803
e 794 804
e 794 805
e 794 806
e 794 807
e 794 808
e 794 809
e 794 810
e 794 811
e 794 812
e 794 813
e 794 814
e 794 815
e 794 816
e 794 817
e 794 818
e 794 819
e 794 820
e 794 821
e 822 823
e 822 824
e 822 825
e 822 826
e 822 827
e 822 828
e 822 829
e 822 830
e 822 831
e 822 832
e 822 833
e 822 834
e 822 835
e 822 836
e 822 837
e 822 838
e 822 839
e 822 840
e 822 841
e 822 842
e 822 843
e 822 844
e 822 845
e 822 846
e 822 847
e 822 848
e 822 849
e 822 850
e 822 851
e 822 852
e 822 853
e 822 854
e 822 855
e 822 856
e 822 857
e 822 858
e 822 859
e 822 860
e 822 861
e 822 862
e 822 863
e 822 864
e 822 865
e 822 866
e 822 867
e 868 869
e 868 870
e 868 871
e 868 872
e 868 873
e 868 874
e 868 875
e 868 876
e 868 877
e 868 878
e 868 879
e 868 880
e 868 881
e 868 882
e 868 883
e 868 884
e 868 885
e 868 886
e 868 887
e 868 888
e 868 889
e 868 890
e 868 891
e 868 892
e 868 893
e 868 894
e 868 895
e 868 896
e 868 897
e 868 898
e 868 899
e 868 900
e 868 901
e 868 902
e 868 903
e 868 904
e 868 905
e 868 906
e 868 907
e 868 908
e 868 909
e 868 910
e 868 911
e 868 912
e 868 913
e 868 914
e 868 915
e 868 916
e 868 917
e 868 918
e 919 920
e 919 921
e 919 922
e 919 923
e 919 924
e 919 925
e 919 926
e 919 927
e 919 928
e 919 929
e 919 930
e 919 931
e 919 932
e 919 933
e 919 934
e 919 935
e 919 936
e 919 937
e 919 938
e 919 939
e 919 940
e 919 941
e 919 942
e 919 943
e 919 944
e 945 946
e 945 947
e 945 948
e 945 949
e 945 950
e 945 951
e 945 952
e 945 953
e 945 954
e 945 955
e 945 956
e 945 957
e 945 958
e 945 959
e 945 960
e 945 961
e 945 962
e 945 963
e 945 964
e 945 965
e 945 966
e 945 967
e 945 968
e 945 969
e 945 970
e 945 971
e 945 972
e 945 973
e 945 974
e 945 975
e 945 976
e 945 977
e 978 979
e 978 980
e 978 981
e 978 982
e 978 983
e 978 984
e 978 985
e 978 986
e 978 987
e 978 988
e 978 989
e 978 990
e 978 991
e 978 992
e 978 993
e 978 994
e 978 995
e 978 996
e 978 997
e 978 998
e 978 999
e 978 1000
e 978 1001
e 978 1002
e 978 1003
e 978 1004
e 978 1005
e 978 1006
e 978 1007
e 978 1008
e 978 1009
e 978 1010
e 978 1011
e 978 1012
e 978 1013
e 978 1014
e 978 1015
e 978 1016
e 1017 1018
e 1017 1019
e 1017 1020
e 1017 1021
e 1017 1022
e 1017 1023
e 1017 1024
e 1017 1025
e 1017 1026
e 1017 1027
e 1017 1028
e 1017 1029
e 1017 1030
e 1017 1031
e 1017 1032
e 1017 1033
e 1017 1034
e 1017 1035
e 1017 1036
e 1017 1037
e 1017 1038
e 1017 1039
e 1017 1040
e 1017 1041
e 1017 1042
e 1017 1043
e 1017 1044
e 1017 1045
e 1017 1046
e 1017 1047
e 1017 1048
e 1017 1049
e 1017 1050
e 1017 1051
e 1017 1052
e 1017 1053
e 1017 1054
e 1017 1055
e 1017 1056
e 1017 1057
e 1017 1058
e 1017 1059
e 1017 1060
e 1017 1061
e 1017 1062
e 1017 1063
e 1017 1064
e 1017 1065
e 1017 1066
e 1017 1067
e 1017 1068
e 1017 1069
e 1017 1070
e 1017 1071
e 1017 1072
e 1017 1073
e 1017 1074
e 1017 1075
e 1017 1076
e 1017 1077
e 1078 1079
e 1078 1080
e 1078 1081
e 1078 1082
e 1078 1083
e 1078 1084
e 1078 1085
e 1078 1086
e 1078 1087
e 1078 1088
e 1078 1089
e 1078 1090
e 1078 1091
e 1078 1092
e 1078 1093
e 1078 1094
e 1078 1095
e 1096 1097
e 1096 1098
e 1096 1099
e 1096 1100
e 1096 1101
e 1096 1102
e 1096 1103
e 1096 1104
e 1096 1105
e 1096 1106
e 1096 1107
e 1096 1108
e 1096 1109
e 1096 1110
e 1096 1111
e 1096 1112
e 1096 1113
e 1096 1114
e 1096 1115
e 1096 1116
e 1096 1117
e 1096 1118
e 1096 1119
e 1096 1120
e 1096 1121
e 1096 1122
e 1096 1123
e 1096 1124
e 1096 1125
e 1096 1126
e 1127 1128
e 1127 1129
e 1127 1130
e 1127 1131
e 1127 1132
e 1127 1133
e 1127 1134
e 1127 1135
e 1127 1136
e 1127 1137
e 1127 1138
e 1127 1139
e 1127 1140
e 1127 1141
e 1127 1142
e 1127 1143
e 1127 1144
e 1127 1145
e 1127 1146
e 1127 1147
e 1127 1148
e 1127 1149
e 1127 1150
e 1127 1151
e 1127 1152
e 1127 1153
e 1127 1154
e 1127 1155
e 1127 1156
e 1127 1157
e 1127 1158
e 1127 1159
e 1127 1160
e 1127 1161
e 1127 1162
e 1127 1163
e 1127 1164
e 1127 1165
e 1127 1166
e 1127 1167
e 1127 1168
e 1169 1170
e 1169 1171
e 1169 1172
e 1169 1173
e 1169 1174
e 1169 1175
e 1169 1176
e 1169 1177
e 1169 1178
e 1169 1179
e 1169 1180
e 1169 1181
e 1169 1182
e 1169 1183
e 1169 1184
e 1169 1185
e 1169 1186
e 1169 1187
e 1169 1188
e 1169 1189
e 1169 1190
e 1191 1192
e 1191 1193
e 1191 1194
e 1191 1195
e 1191 1196
e 1191 1197
e 1191 1198
e 1191 1199
e 1191 1200
e 1191 1201
e 1191 1202
e 1191 1203
e 1191 1204
e 1191 1205
e 1191 1206
e 1191 1207
e 1191 1208
e 1191 1209
e 1191 1210
e 1191 1211
e 1191 1212
e 1191 1213
e 1191 1214
e 1191 1215
e 1191 1216
e 1191 1217
e 1191 1218
e 1191 1219
e 1191 1220
e 1191 1221
e 1191 1222
e 1191 1223
e 1191 1224
e 1225 1226
e 1225 1227
e 1225 1228
e 1225 1229
e 1225 1230
e 1225 1231
e 1225 1232
e 1225 1233
e 1225 1234
e 1225 1235
e 1225 1236
e 1225 1237
e 1225 1238
e 1225 1239
e 1225 1240
e 1225 1241
e 1225 1242
e 1225 1243
e 1225 1244
e 1225 1245
e 1225 1246
e 1225 1247
e 1225 1248
e 1225 1249
e 1225 1250
e 1225 1251
e 1225 1252
e 1225 1253
e 1225 1254
e 1225 1255
e 1225 1256
e 1225 1257
e 1225 1258
e 1225 1259
e 1225 1260
e 1225 1261
e 1225 1262
e 1225 1263
e 1225 1264
e 1225 1265
e 1225 1266
e 1225 1267
e 1225 1268
e 1225 1269
e 1225 1270
e 1225 1271
e 1272 1273
e 1272 1274
e 1272 1275
e 1272 1276
e 1272 1277
e 1272 1278
e 1272 1279
e 1272 1280
e 1272 1281
e 1272 1282
e 1272 1283
e 1272 1284
e 1285 1286
e 1285 1287
e 1285 1288
e 1285 1289
e 1285 1290
e 1285 1291
e 1285 1292
e 1285 1293
e 1285 1294
e 1285 1295
e 1285 1296
e 1285 1297
e 1285 1298
e 1285 1299
e 1285 1300
e 1285 1301
e 1285 1302
e 1285 1303
e 1285 1304
e 1285 1305
e 1285 1306
e 1285 1307
e 1285 1308
e 1285 1309
e 1285 1310
e 1311 1312
e 1311 1313
e 1311 1314
e 1311 1315
e 1311 1316
e 1311 1317
e 1311 1318
e 1311 1319
e 1311 1320
e 1311 1321
e 1311 1322
e 1311 1323
e 1311 1324
e 1311 1325
e 1311 1326
e 1311 1327
e 1311 1328
e 1311 1329
e 1311 1330
e 1311 1331
e 1311 1332
e 1311 1333
e 1311 1334
e 1311 1335
e 1311 1336
e 1311 1337
e 1311 1338
e 1311 1339
e 1311 1340
e 1311 1341
e 1311 1342
e 1311 1343
e 1311 1344
e 1311 1345
e 1311 1346
e 1311 1347
e 1311 1348
e 1311 1349
e 1311 1350
e 1311 1351
e 1311 1352
e 1311 1353
e 1311 1354
e 1311 1355
e 1311 1356
e 1311 1357
e 1311 1358
e 1311 1359
e 1311 1360
e 1311 1361
e 1311 1362
e 1311 1363
e 1311 1364
e 1311 1365
e 1311 1366
e 1367 1368
e 1367 1369
e 1367 1370
e 1367 1371
e 1367 1372
e 1367 1373
e 1367 1374
e 1367 1375
e 1367 1376
e 1367 1377
e 1367 1378
e 1367 1379
e 1367 1380
e 1367 1381
e 1367 1382
e 1367 1383
e 1367 1384
e 1367 1385
e 1367 1386
e 1367 1387
e 1367 1388
e 1367 1389
e 1367 1390
e 1367 1391
e 1367 1392
e 1367 1393
e 1367 1394
e 1367 1395
e 1367 1396
e 1367 1397
e 1367 1398
e 1367 1399
e 1367 1400
e 1367 1401
e 1367 1402
e 1367 1403
e 1367 1404
e 1367 1405
e 1367 1406
e 1367 1407
e 1408 1409
e 1408 1410
e 1408 1411
e 1408 1412
e 1408 1413
e 1408 1414
e 1408 1415
e 1408 1416
e 1408 1417
e 1408 1418
e 1408 1419
e 1408 1420
e 1408 1421
e 1408 1422
e 1408 1423
e 1408 1424
e 1408 1425
e 1408 1426
e 1408 1427
e 1408 1428
e 1408 1429
e 1408 1430
e 1408 1431
e 1408 1432
e 1408 1433
e 1408 1434
e 1408 1435
e 1408 1436
e 1408 1437
e 1408 1438
e 1408 1439
e 1408 1440
e 1408 1441
e 1408 1442
e 1408 1443
e 1408 1444
e 1408 1445
e 1408 1446
e 1408 1447
e 1408 1448
e 1408 1449
e 1408 1450
e 1408 1451
e 1408 1452
e 1408 1453
e 1408 1454
e 1408 1455
e 1408 1456
e 1408 1457
e 1408 1458
e 1408 1459
e 1408 1460
e 1408 1461
e 1408 1462
e 1408 1463
e 1408 1464
e 1408 1465
e 1408 1466
e 1408 1467
e 1468 1469
e 1468 1470
e 1468 1471
e 1468 1472
e 1468 1473
e 1468 1474
e 1468 1475
e 1468 1476
e 1468 1477
e 1468 1478
e 1468 1479
e 1468 1480
e 1468 1481
e 1468 1482
e 1468 1483
e 1468 1484
e 1468 1485
e 1468 1486
e 1468 1487
e 1468 1488
e 1468 1489
e 1468 1490
e 1468 1491
e 1468 1492
e 1468 1493
e 1468 1494
e 1468 1495
e 1468 1496
e 1468 1497
e 1468 1498
e 1468 1499
e 1468 1500
e 1468 1501
e 1468 1502
e 1468 1503
e 1468 1504
e 1468 1505
e 1468 1506
e 1468 1507
e 1468 1508
e 1468 1509
e 1468 1510
e 1468 1511
e 1468 1512
e 1468 1513
e 1468 1514
e 1468 1515
e 1468 1516
e 1468 1517
e 1468 1518
e 1519 1520
e 1519 1521
e 1519 1522
e 1519 1523
e 1519 1524
e 1519 1525
e 1519 1526
e 1519 1527
e 1519 1528
e 1519 1529
e 1519 1530
e 1519 1531
e 1519 1532
e 1519 1533
e 1519 1534
e 1519 1535
e 1519 1536
e 1519 1537
e 1519 1538
e 1519 1539
e 1519 1540
e 1519 1541
e 1519 1542
e 1519 1543
e 1519 1544
e 1519 1545
e 1519 1546
e 1519 1547
e 1519 1548
e 1519 1549
e 1519 1550
e 1519 1551
e 1519 1552
e 1519 1553
e 1519 1554
e 1519 1555
e 1519 1556
e 1519 1557
e 1519 1558
e 1519 1559
e 1519 1560
e 1519 1561
e 1519 1562
e 1519 1563
e 1519 1564
e 1519 1565
e 1519 1566
e 1519 1567
e 1519 1568
e 1519 1569
e 1519 1570
e 1519 1571
e 1519 1572
e 1573 1574
e 1573 1575
e 1573 1576
e 1573 1577
e 1573 1578
e 1573 1579
e 1573 1580
e 1573 1581
e 1573 1582
e 1573 1583
e 1573 1584
e 1573 1585
e 1573 1586
e 1573 1587
e 1573 1588
e 1573 1589
e 1573 1590
e 1573 1591
e 1573 1592
e 1573 1593
e 1573 1594
e 1573 1595
e 1573 1596
e 1573 1597
e 1573 1598
e 1573 1599
e 1573 1600
e 1573 1601
e 1573 1602
e 1573 1603
e 1573 1604
e 1573 1605
e 1573 1606
e 1573 1607
e 1573 1608
e 1573 1609
e 1573 1610
e 1573 1611
e 1612 1613
e 1612 1614
e 1612 1615
e 1612 1616
e 1612 1617
e 1612 1618
e 1612 1619
e 1612 1620
e 1612 1621
e 1612 1622
e 1612 1623
e 1612 1624
e 1612 1625
e 1612 1626
e 1612 1627
e 1612 1628
e 1612 1629
e 1612 1630
e 1612 1631
e 1612 1632
e 1612 1633
e 1612 1634
e 1612 1635
e 1612 1636
e 1612 1637
e 1612 1638
e 1612 1639
e 1612 1640
e 1612 1641
e 1612 1642
e 1612 1643
e 1612 1644
e 1612 1645
e 1612 1646
e 1612 1647
e 1612 1648
e 1612 1649
e 1612 1650
e 1612 1651
e 1612 1652
e 1612 1653
e 1612 1654
e 1612 1655
e 1612 1656
e 1612 1657
e 1612 1658
e 1612 1659
e 1612 1660
e 1612 1661
e 1612 1662
e 1612 1663
e 1612 1664
e 1665 1666
e 1665 1667
e 1665 1668
e 1665 1669
e 1665 1670
e 1665 1671
e 1665 1672
e 1665 1673
e 1665 1674
e 1665 1675
e 1665 1676
e 1665 1677
e 1665 1678
e 1665 1679
e 1665 1680
e 1665 1681
e 1665 1682
e 1665 1683
e 1665 1684
e 1665 1685
e 1665 1686
e 1665 1687
e 1665 1688
e 1665 1689
e 1665 1690
e 1665 1691
e 1665 1692
e 1665 1693
e 1665 1694
e 1665 1695
e 1665 1696
e 1665 1697
e 1665 1698
e 1665 1699
e 1665 1700
e 1665 1701
e 1665 1702
e 1665 1703
e 1665 1704
e 1665 1705
e 1665 1706
e 1665 1707
e 1665 1708
e 1665 1709
e 1665 1710
e 1665 1711
e 1665 1712
e 1665 1713
e 1665 1714
e 1665 1715
e 1665 1716
e 1717 1718
e 1717 1719
e 1717 1720
e 1717 1721
e 1717 1722
e 1717 1723
e 1717 1724
e 1717 1725
e 1717 1726
e 1717 1727
e 1717 1728
e 1717 1729
e 1717 1730
e 1717 1731
e 1717 1732
e 1717 1733
e 1717 1734
e 1717 1735
e 1717 1736
e 1717 1737
e 1717 1738
e 1717 1739
e 1717 1740
e 1717 1741
e 1717 1742
e 1717 1743
e 1717 1744
e 1717 1745
e 1717 1746
e 1717 1747
e 1717 1748
e 1717 1749
e 1717 1750
e 1717 1751
e 1717 1752
e 1717 1753
e 1717 1754
e 1717 1755
e 1717 1756
e 1717 1757
e 1717 1758
e 1717 1759
e 1717 1760
e 1717 1761
e 1717 1762
e 1717 1763
e 1717 1764
e 1717 1765
e 1717 1766
e 1717 1767
e 1768 1769
e 1768 1770
e 1768 1771
e 1768 1772
e 1768 1773
e 1768 1774
e 1768 1775
e 1768 1776
e 1768 1777
e 1768 1778
e 1768 1779
e 1768 1780
e 1768 1781
e 1768 1782
e 1768 1783
e 1768 1784
e 1768 1785
e 1768 1786
e 1768 1787
e 1768 1788
e 1768 1789
e 1768 1790
e 1768 1791
e 1768 1792
e 1768 1793
e 1768 1794
e 1768 1795
e 1768 1796
e 1768 1797
e 1798 1799
e 1798 1800
e 1798 1801
e 1798 1802
e 1798 1803
e 1798 1804
e 1798 1805
e 1798 1806
e 1798 1807
e 1798 1808
e 1798 1809
e 1798 1810
e 1798 1811
e 1812 1813
e 1812 1814
e 1812 1815
e 1812 1816
e 1812 1817
e 1812 1818
e 1812 1819
e 1812 1820
e 1812 1821
e 1812 1822
e 1812 1823
e 1812 1824
e 1812 1825
e 1812 1826
e 1812 1827
e 1812 1828
e 1812 1829
e 1812 1830
e 1812 1831
e 1812 1832
e 1812 1833
e 1812 1834
e 1812 1835
e 1812 1836
e 1812 1837
e 1812 1838
e 1812 1839
e 1812 1840
e 1812 1841
e 1812 1842
e 1812 1843
e 1812 1844
e 1812 1845
e 1846 1847
e 1846 1848
e 1846 1849
e 1846 1850
e 1846 1851
e 1846 1852
e 1846 1853
e 1846 1854
e 1846 1855
e 1846 1856
e 1846 1857
e 1846 1858
e 1859 1860
e 1859 1861
e 1859 1862
e 1859 1863
e 1859 1864
e 1859 1865
e 1859 1866
e 1859 1867
e 1859 1868
e 1859 1869
e 1859 1870
e 1859 1871
e 1859 1872
e 1859 1873
e 1859 1874
e 1859 1875
e 1859 1876
e 1859 1877
e 1859 1878
e 1859 1879
e 1859 1880
e 1859 1881
e 1859 1882
e 1859 1883
e 1859 1884
e 1859 1885
e 1859 1886
e 1859 1887
e 1859 1888
e 1859 1889
e 1859 1890
e 1859 1891
e 1859 1892
e 1859 1893
e 1859 1894
e 1859 1895
e 1859 1896
e 1859 1897
e 1859 1898
e 1859 1899
e 1859 1900
e 1859 1901
e 1859 1902
e 1859 1903
e 1859 1904
e 1859 1905
e 1859 1906
e 1907 1908
e 1907 1909
e 1907 1910
e 1907 1911
e 1907 1912
e 1907 1913
e 1907 1914
e 1907 1915
e 1907 1916
e 1907 1917
e 1907 1918
e 1907 1919
e 1907 1920
e 1907 1921
e 1907 1922
e 1907 1923
e 1907 1924
e 1907 1925
e 1907 1926
e 1907 1927
e 1907 1928
e 1907 1929
e 1907 1930
e 1907 1931
e 1907 1932
e 1907 1933
e 1907 1934
e 1907 1935
e 1907 1936
e 1907 1937
e 1907 1938
e 1907 1939
e 1907 1940
e 1907 1941
e 1907 1942
e 1907 1943
e 1907 1944
e 1945 1946
e 1945 1947
e 1945 1948
e 1945 1949
e 1945 1950
e 1945 1951
e 1945 1952
e 1945 1953
e 1945 1954
e 1945 1955
e 1945 1956
e 1945 1957
e 1945 1958
e 1945 1959
e 1945 1960
e 1945 1961
e 1945 1962
e 1945 1963
e 1945 1964
e 1945 1965
e 1945 1966
e 1945 1967
e 1945 1968
e 1945 1969
e 1945 1970
e 1945 1971
e 1945 1972
e 1945 1973
e 1945 1974
e 1945 1975
e 1945 1976
e 1945 1977
e 1945 1978
e 1945 1979
e 1945 1980
e 1981 1982
e 1981 1983
e 1981 1984
e 1981 1985
e 1981 1986
e 1981 1987
e 1981 1988
e 1981 1989
e 1981 1990
e 1981 1991
e 1981 1992
e 1981 1993
e 1981 1994
e 1981 1995
e 1981 1996
e 1981 1997
e 1981 1998
e 1981 1999
e 1981 2000
e 1981 2001
e 1981 2002
e 1981 2003
e 1981 2004
e 1981 2005
e 1981 2006
e 1981 2007
e 1981 2008
e 1981 2009
e 1981 2010
e 1981 2011
e 1981 2012
e 1981 2013
e 1981 2014
e 1981 2015
e 1981 2016
e 1981 2017
e 1981 2018
e 1981 2019
e 1981 2020
e 1981 2021
e 1981 2022
e 1981 2023
e 1981 2024
e 1981 2025
e 1981 2026
e 1981 2027
e 1981 2028
e 1981 2029
e 1981 2030
e 1981 2031
e 1981 2032
e 1981 2033
e 1981 2034
e 1981 2035
e 1981 2036
e 1981 2037
e 1981 2038
e 1981 2039
e 2040 2041
e 2040 2042
e 2040 2043
e 2040 2044
e 2040 2045
e 2040 2046
e 2040 2047
e 2040 2048
e 2040 2049
e 2040 2050
e 2040 2051
e 2040 2052
e 2040 2053
e 2040 2054
e 2040 2055
e 2040 2056
e 2040 2057
e 2040 2058
e 2040 2059
e 2040 2060
e 2040 2061
e 2040 2062
e 2063 2064
e 2063 2065
e 2063 2066
e 2063 2067
e 2063 2068
e 2063 2069
e 2063 2070
e 2063 2071
e 2063 2072
e 2063 2073
e 2063 2074
e 2063 2075
e 2063 2076
e 2063 2077
e 2063 2078
e 2063 2079
e 2063 2080
e 2063 2081
e 2063 2082
e 2063 2083
e 2063 2084
e 2063 2085
e 2063 2086
e 2063 2087
e 2063 2088
e 2063 2089
e 2063 2090
e 2063 2091
e 2063 2092
e 2063 2093
e 2063 2094
e 2063 2095
e 2096 2097
e 2096 2098
e 2096 2099
e 2096 2100
e 2096 2101
e 2096 2102
e 2096 2103
e 2096 2104
e 2096 2105
e 2096 2106
e 2096 2107
e 2096 2108
e 2109 2110
e 2109 2111
e 2109 2112
e 2109 2113
e 2109 2114
e 2109 2115
e 2109 2116
e 2109 2117
e 2109 2118
e 2109 2119
e 2109 2120
e 2109 2121
e 2109 2122
e 2109 2123
e 2109 2124
e 2109 2125
e 2109 2126
e 2109 2127
e 2109 2128
e 2109 2129
e 2109 2130
e 2109 2131
e 2109 2132
e 2109 2133
e 2109 2134
e 2109 2135
e 2109 2136
e 2109 2137
e 2109 2138
e 2139 2140
e 2139 2141
e 2139 2142
e 2139 2143
e 2139 2144
e 2139 2145
e 2139 2146
e 2139 2147
e 2139 2148
e 2139 2149
e 2139 2150
e 2139 2151
e 2139 2152
e 2139 2153
e 2139 2154
e 2139 2155
e 2139 2156
e 2139 2157
e 2139 2158
e 2139 2159
e 2139 2160
e 2139 2161
e 2139 2162
e 2139 2163
e 2139 2164
e 2139 2165
e 2139 2166
e 2139 2167
e 2139 2168
e 2139 2169
e 2170 2171
e 2170 2172
e 2170 2173
e 2170 2174
e 2170 2175
e 2170 2176
e 2170 2177
e 2170 2178
e 2170 2179
e 2170 2180
e 2170 2181
e 2170 2182
e 2170 2183
e 2170 2184
e 2170 2185
e 2170 2186
e 2170 2187
e 2170 2188
e 2170 2189
e 2170 2190
e 2170 2191
e 2170 2192
e 2170 2193
e 2170 2194
e 2170 2195
e 2170 2196
e 2170 2197
e 2170 2198
e 2170 2199
e 2170 2200
e 2170 2201
e 2170 2202
e 2170 2203
e 2170 2204
e 2170 2205
e 2170 2206
e 2207 2208
e 2207 2209
e 2207 2210
e 2207 2211
e 2207 2212
e 2207 2213
e 2207 2214
e 2207 2215
e 2207 2216
e 2207 2217
e 2207 2218
e 2207 2219
e 2207 2220
e 2207 2221
e 2207 2222
e 2207 2223
e 2207 2224
e 2207 2225
e 2207 2226
e 2207 2227
e 2207 2228
e 2207 2229
e 2207 2230
e 2207 2231
e 2207 2232
e 2207 2233
e 2207 2234
e 2207 2235
e 2207 2236
e 2207 2237
e 2207 2238
e 2207 2239
e 2207 2240
e 2207 2241
e 2207 2242
e 2207 2243
e 2207 2244
e 2207 2245
e 2207 2246
e 2207 2247
e 2207 2248
e 2207 2249
e 2207 2250
e 2207 2251
e 2207 2252
e 2207 2253
e 2207 2254
e 2207 2255
e 2207 2256
e 2207 2257
e 2207 2258
e 2207 2259
e 2207 2260
e 2207 2261
e 2207 2262
e 2207 2263
e 2264 2265
e 2264 2266
e 2264 2267
e 2264 2268
e 2264 2269
e 2264 2270
e 2264 2271
e 2264 2272
e 2264 2273
e 2264 2274
e 2264 2275
e 2264 2276
e 2264 2277
e 2264 2278
e 2264 2279
e 2264 2280
e 2264 2281
e 2264 2282
e 2264 2283
e 2264 2284
e 2264 2285
e 2264 2286
e 2264 2287
